Data path: /scratch/opt/lxu/CFLG/benchmarks/random_B
Instance: r_30_0.1_54.txt
Result path: /scratch/opt/lxu/CFLG/results/random_B
Solver: CPLEX
Time limit: 3600
Formulation: EF
Cover: Large
julia --project=. src/main.jl /scratch/opt/lxu/CFLG/benchmarks/random_B r_30_0.1_54.txt /scratch/opt/lxu/CFLG/results/random_B CPLEX 3600 EF Large
/scratch/opt/lxu/CFLG/benchmarks/random_B CPLEX 3600.0 /scratch/opt/lxu/CFLG/results/random_B r_30_0.1_54.txt EF Large
/scratch/opt/lxu/CFLG/benchmarks/random_B/r_30_0.1_54.txt

 read graph
data loaded

problem_graph/original graph: node: 30/30 edge: 54/54 dlt: 1.1988431583223897 break_avg_len: 0.5994215791611949 break_max_len: 0.9919704436735612elapsed CPU time: 0.025041 seconds

 model loaded

Version identifier: 12.10.0.0 | 2019-11-26 | 843d4de
CPXPARAM_ClockType                               1
CPXPARAM_Threads                                 1
CPXPARAM_TimeLimit                               3599.9749590000001
CPXPARAM_MIP_Tolerances_AbsMIPGap                1
Tried aggregator 3 times.
MIP Presolve eliminated 420711 rows and 100451 columns.
MIP Presolve modified 95077 coefficients.
Aggregator did 2623 substitutions.
Reduced MIP has 53324 rows, 61302 columns, and 309216 nonzeros.
Reduced MIP has 60700 binaries, 0 generals, 0 SOSs, and 0 indicators.
Presolve time = 2.12 sec. (1730.99 ticks)
Found incumbent of value 54.000000 after 2.79 sec. (2331.31 ticks)
Probing fixed 5457 vars, tightened 48 bounds.
Probing time = 14.80 sec. (7360.51 ticks)
Cover probing fixed 1981 vars, tightened 893 bounds.
Tried aggregator 1 time.
MIP Presolve eliminated 7842 rows and 7704 columns.
MIP Presolve modified 10389 coefficients.
Reduced MIP has 45482 rows, 53598 columns, and 267972 nonzeros.
Reduced MIP has 52996 binaries, 0 generals, 0 SOSs, and 0 indicators.
Presolve time = 0.32 sec. (281.83 ticks)
Probing time = 0.06 sec. (18.83 ticks)
Tried aggregator 1 time.
Detecting symmetries...
Reduced MIP has 45482 rows, 53598 columns, and 267972 nonzeros.
Reduced MIP has 52996 binaries, 0 generals, 0 SOSs, and 0 indicators.
Presolve time = 0.28 sec. (235.88 ticks)
Probing time = 0.07 sec. (33.36 ticks)
Clique table members: 122193.
MIP emphasis: balance optimality and feasibility.
MIP search method: dynamic search.
Parallel mode: none, using 1 thread.
Root relaxation solution time = 4.70 sec. (4063.61 ticks)

        Nodes                                         Cuts/
   Node  Left     Objective  IInf  Best Integer    Best Bound    ItCnt     Gap

*     0+    0                           54.0000        0.0000           100.00%
      0     0        3.0000   778       54.0000        3.0000    10424   94.44%
*     0+    0                            9.0000        3.0000            66.67%
      0     0        3.1111   778        9.0000    Cuts: 1332    15282   65.43%
      0     0        3.1111   778        9.0000    Cuts: 2182    19139   65.43%
      0     0        3.1111   778        9.0000     Cuts: 463    21483   65.43%
*     0+    0                            8.0000        3.1111            61.11%
      0     0  -1.00000e+75     0        8.0000        3.1111    21483   61.11%
      0     0        3.1111   778        8.0000    Cuts: 1286    24567   61.11%
Heuristic still looking.
*     0+    0                            7.0000        3.1111            55.56%
*     0+    0                            6.0000        3.1111            48.15%
      0     0  -1.00000e+75     0        6.0000        3.1111    24567   48.15%
      0     2        3.1111   510        6.0000        3.1111    24567   48.15%
Elapsed time = 65.64 sec. (51451.55 ticks, tree = 0.01 MB, solutions = 5)
      1     3        4.0000   585        6.0000        3.1111    33016   48.15%
      3     5        3.1111   833        6.0000        3.1111    34838   48.15%
      4     6        4.0000   246        6.0000        3.1111    38138   48.15%
      5     7        3.1111   952        6.0000        3.1111    42957   48.15%
      6     8        4.0000   113        6.0000        3.1111    48406   48.15%
      7     9        3.1111   943        6.0000        3.1111    49239   48.15%
      8    10        3.1111   873        6.0000        3.1111    50114   48.15%
     10    12        3.1111   873        6.0000        3.1111    50442   48.15%
     11    13        4.0000   888        6.0000        3.1111    59617   48.15%
     17    19        3.1111   730        6.0000        3.1111    63108   48.15%
Elapsed time = 95.64 sec. (83380.10 ticks, tree = 1.08 MB, solutions = 5)
     20    22        4.5556   510        6.0000        3.1111    75515   48.15%
     23    25        4.0000   238        6.0000        3.1111    78135   48.15%
     25    27        4.2978   103        6.0000        3.1111    81818   48.15%
     37    33        4.5556   471        6.0000        3.1111    90653   48.15%
     40    34        4.5556   473        6.0000        3.1111    91186   48.15%
     43    37        4.6000   392        6.0000        3.1111    94547   48.15%
     45    39        4.7000   393        6.0000        3.1111    98205   48.15%
     55    43        4.0000   712        6.0000        3.1111   104036   48.15%
     56    44        4.0000   725        6.0000        3.1111   105356   48.15%
     63    51        4.0000   655        6.0000        3.1111   114624   48.15%
Elapsed time = 134.67 sec. (121297.81 ticks, tree = 5.77 MB, solutions = 5)
     64    52        4.0000   587        6.0000        3.1111   116200   48.15%
     65    53        4.0400   556        6.0000        3.1111   127289   48.15%
     66    54        4.0588  1052        6.0000        3.1111   134243   48.15%
     67    55        4.0588   971        6.0000        3.1111   136733   48.15%
     68    56        4.0588   691        6.0000        3.1111   139651   48.15%
     70    58        4.0909   733        6.0000        3.1111   146683   48.15%
     72    60        4.1429  1170        6.0000        3.1111   151726   48.15%
     76    64        4.1500   844        6.0000        3.1111   157910   48.15%
     77    65        4.1500   852        6.0000        3.1111   159916   48.15%
     78    66        4.1905   941        6.0000        3.1111   165207   48.15%
Elapsed time = 179.74 sec. (166069.28 ticks, tree = 7.20 MB, solutions = 5)
     79    67        4.2500  1237        6.0000        3.1111   169128   48.15%
     80    68        4.2500  1332        6.0000        3.1111   181659   48.15%
     81    69        4.2500  1205        6.0000        3.1111   190626   48.15%
     82    70        4.2500  1309        6.0000        3.1111   204374   48.15%
     85    73        4.2500   443        6.0000        3.1111   207725   48.15%
     89    77        4.2653   480        6.0000        3.1111   211310   48.15%
     91    79        4.3077   386        6.0000        3.1111   213469   48.15%
     94    82        4.3077   379        6.0000        3.1111   215543   48.15%
     96    84        4.3333   238        6.0000        3.1111   217527   48.15%
     98    86        4.3333   341        6.0000        3.1111   220790   48.15%
Elapsed time = 252.27 sec. (238979.72 ticks, tree = 8.05 MB, solutions = 5)
    100    88        4.3571   450        6.0000        3.1111   224544   48.15%
    107    95        4.4000   741        6.0000        3.1111   226590   48.15%
    111    99        4.4000   637        6.0000        3.1111   227932   48.15%
    113   101        4.4000   493        6.0000        3.1111   229606   48.15%
    116   104        4.4286   525        6.0000        3.1111   231524   48.15%
    121   109        4.4286   401        6.0000        3.1111   233865   48.15%
    123   111        4.4286   362        6.0000        3.1111   236446   48.15%
    125   113        4.4615   437        6.0000        3.1111   239132   48.15%
    127   115        4.4667   542        6.0000        3.1111   240953   48.15%
    128   116        4.4725   570        6.0000        3.1111   242555   48.15%
Elapsed time = 266.63 sec. (251883.56 ticks, tree = 9.85 MB, solutions = 5)
    133   121        4.5000   593        6.0000        3.1111   244075   48.15%
    135   123        4.5000   636        6.0000        3.1111   245561   48.15%
    137   125        4.5000   351        6.0000        3.1111   247214   48.15%
    140   128        4.5172   518        6.0000        3.1111   251896   48.15%
    144   132        4.5263   579        6.0000        3.1111   254396   48.15%
    146   134        4.6000   475        6.0000        3.1111   256435   48.15%
    150   138        4.6000   416        6.0000        3.1111   259271   48.15%
    152   140        4.7000   357        6.0000        3.1111   262297   48.15%
    158   146        4.8000   396        6.0000        3.1111   264226   48.15%
    175   163        5.0000   335        6.0000        3.1111   265875   48.15%
Elapsed time = 303.76 sec. (284898.15 ticks, tree = 12.81 MB, solutions = 5)
    194   182        5.0000   380        6.0000        3.1111   266824   48.15%
    208   192        3.6667   214        6.0000        3.1111   270691   48.15%
    212   196        3.7778   280        6.0000        3.1111   273626   48.15%
    216   200        4.1429   302        6.0000        3.1111   276862   48.15%
    220   204        4.1765   339        6.0000        3.1111   278759   48.15%
    225   209        4.3333   338        6.0000        3.1111   280891   48.15%
    229   213        4.3333   265        6.0000        3.1111   282424   48.15%
    234   218        4.3333   278        6.0000        3.1111   283905   48.15%
    238   222        4.3415   399        6.0000        3.1111   285396   48.15%
    242   226        4.4444   296        6.0000        3.1111   286706   48.15%
Elapsed time = 316.82 sec. (297323.48 ticks, tree = 16.90 MB, solutions = 5)
    250   234        4.5000   536        6.0000        3.1111   288141   48.15%
    255   239        4.5000   205        6.0000        3.1111   289869   48.15%
    260   244        4.5067   410        6.0000        3.1111   291512   48.15%
    264   248        4.5067   420        6.0000        3.1111   293579   48.15%
    269   253        4.5088   437        6.0000        3.1111   295339   48.15%
    274   258        4.5200   360        6.0000        3.1111   296929   48.15%
    279   263        4.5714   341        6.0000        3.1111   298683   48.15%
    283   267        4.5714   364        6.0000        3.1111   300162   48.15%
    287   271        4.6000   358        6.0000        3.1111   301794   48.15%
    292   276        4.6250   284        6.0000        3.1111   303890   48.15%
Elapsed time = 328.18 sec. (308099.90 ticks, tree = 19.92 MB, solutions = 5)
    295   279        4.6364   516        6.0000        3.1111   305639   48.15%
    307   291        4.6667   509        6.0000        3.1111   306856   48.15%
    314   298        4.6667   448        6.0000        3.1111   308481   48.15%
    320   304        4.6667   484        6.0000        3.1111   309857   48.15%
    336   320        4.6667   484        6.0000        3.1111   310999   48.15%
    350   334        4.6667   357        6.0000        3.1111   312023   48.15%
    359   343        4.6667   254        6.0000        3.1111   314230   48.15%
    362   346        4.6800   456        6.0000        3.1111   315904   48.15%
    368   352        4.7143   543        6.0000        3.1111   317580   48.15%
    373   357        4.7333   446        6.0000        3.1111   319052   48.15%
Elapsed time = 339.69 sec. (318896.24 ticks, tree = 24.77 MB, solutions = 5)
    378   362        4.7500   396        6.0000        3.1111   320803   48.15%
    383   367        5.0000   391        6.0000        3.1111   322821   48.15%
    388   372        5.0000   352        6.0000        3.1111   324378   48.15%
    405   387        5.0000   145        6.0000        3.1111   325231   48.15%
    417   395        4.0000   156        6.0000        3.1111   328280   48.15%
    422   400        4.0000   142        6.0000        3.1111   330702   48.15%
    430   408        4.2222   234        6.0000        3.1111   332791   48.15%
    440   418        4.2500   278        6.0000        3.1111   334255   48.15%
    445   423        4.3333   502        6.0000        3.1111   336267   48.15%
    468   446        4.5000   369        6.0000        3.1111   342671   48.15%
Elapsed time = 354.54 sec. (334017.09 ticks, tree = 30.20 MB, solutions = 5)
    481   459        3.5000   248        6.0000        3.1111   351947   48.15%

Performing restart 1

Repeating presolve.
Tried aggregator 1 time.
MIP Presolve eliminated 1 rows and 0 columns.
MIP Presolve modified 396 coefficients.
Reduced MIP has 45481 rows, 53598 columns, and 267969 nonzeros.
Reduced MIP has 52996 binaries, 0 generals, 0 SOSs, and 0 indicators.
Presolve time = 0.20 sec. (200.13 ticks)
Tried aggregator 1 time.
Reduced MIP has 45481 rows, 53598 columns, and 267969 nonzeros.
Reduced MIP has 52996 binaries, 0 generals, 0 SOSs, and 0 indicators.
Presolve time = 0.29 sec. (239.15 ticks)
Represolve time = 1.34 sec. (880.84 ticks)
    482     0        3.4211  1129        6.0000     Cuts: 509   365536   42.98%
    482     0        3.6000  1129        6.0000    Cuts: 1055   372716   40.00%
    482     0        3.8000  1129        6.0000     Cuts: 907   385653   36.67%
    482     0        3.8182  1129        6.0000    Cuts: 1462   395209   36.36%
    482     0        3.8182  1129        6.0000    Cuts: 1125   403694   36.36%
    482     0        3.8182  1129        6.0000     Cuts: 205   407474   36.36%
    482     0        3.8182  1129        6.0000     Cuts: 838   413454   36.36%
    482     0        3.8182  1129        6.0000     Cuts: 210   414864   36.36%
    482     0        3.8182  1129        6.0000     Cuts: 691   418515   36.36%
    482     0        3.8182  1129        6.0000     Cuts: 191   420605   36.36%
    482     0        3.8182  1129        6.0000    Cuts: 1172   426872   36.36%
    482     2        3.8182   682        6.0000        3.8182   427042   36.36%
    483     3        3.8462   621        6.0000        3.8667   437713   35.56%
    484     4        4.0000   931        6.0000        3.8667   450454   35.56%
    485     5        4.2000   507        6.0000        3.8667   457868   35.56%
    486     6        4.0000   933        6.0000        3.8667   462466   35.56%
    488     8        4.0000   217        6.0000        3.8667   482602   35.56%
    491     9        4.1667   504        6.0000        3.8667   492214   35.56%
    494    10        4.2500   342        6.0000        3.8667   503930   35.56%
    523    35        5.0000    13        6.0000        3.8667   510393   35.56%
Elapsed time = 707.98 sec. (637183.25 ticks, tree = 2.28 MB, solutions = 5)
    540    38        3.8667   507        6.0000        3.8667   512213   35.56%
    544    42        3.8667   402        6.0000        3.8667   519096   35.56%
    546    44        3.8667   279        6.0000        3.8667   526761   35.56%
    556    54        4.4232   178        6.0000        3.8667   533405   35.56%
    576    62        3.8667   369        6.0000        3.8667   542323   35.56%
    582    68        5.0000   199        6.0000        3.8667   547224   35.56%
    601    77        3.8667   389        6.0000        3.8667   552894   35.56%
    602    78        3.9104   347        6.0000        3.8667   556695   35.56%
    607    83        4.0000   298        6.0000        3.8667   568038   35.56%
    614    90        4.1667   316        6.0000        3.8667   578926   35.56%
Elapsed time = 776.02 sec. (705738.58 ticks, tree = 6.55 MB, solutions = 5)
*   652+   25                            5.0000        3.8667            22.67%
    653    25        3.9091   325        5.0000        3.8667   585094   22.67%
    669    31        cutoff              5.0000        3.8667   593402   22.67%
    670    32        3.8667   476        5.0000        3.8667   597515   22.67%
    672    34        3.9091   435        5.0000        3.8667   604121   22.67%
    687    47        4.0000   274        5.0000        3.8667   609272   22.67%
    694    49        3.8667   297        5.0000        3.8667   613503   22.67%
    734    67        4.0000    94        5.0000        3.8667   618994   22.67%
    753    79        4.0000   322        5.0000        3.8667   625415   22.67%
    762    82        3.9143   423        5.0000        3.8667   630794   22.67%
    769    85        3.8667   451        5.0000        3.8667   638047   22.67%
Elapsed time = 834.51 sec. (765298.73 ticks, tree = 5.72 MB, solutions = 6)
    772    88        3.8667   453        5.0000        3.8667   641562   22.67%
    780    90        3.9583   396        5.0000        3.8667   650300   22.67%
    798   100        cutoff              5.0000        3.8667   655763   22.67%
    802   100        3.8667   443        5.0000        3.8667   657415   22.67%
    818   109        4.0000   295        5.0000        3.8667   668329   22.67%
    822   109        3.8947   440        5.0000        3.8667   673323   22.67%
    830   113        cutoff              5.0000        3.8667   680978   22.67%
    837   113        4.0000   236        5.0000        3.8667   694734   22.67%
    843   111        3.8889   588        5.0000        3.8667   705143   22.67%
    848   114        4.0000   383        5.0000        3.8667   713521   22.67%
Elapsed time = 888.01 sec. (820101.34 ticks, tree = 7.54 MB, solutions = 6)
    870   132        cutoff              5.0000        3.8667   719417   22.67%
    912   133        3.8667   340        5.0000        3.8667   722366   22.67%
    919   140        3.9000   319        5.0000        3.8667   728283   22.67%
    942   162        4.0000   278        5.0000        3.8667   734665   22.67%
    947   163        3.9200   688        5.0000        3.8667   740531   22.67%
    954   160        cutoff              5.0000        3.8667   749657   22.67%
    963   163        4.0000   191        5.0000        3.8667   756507   22.67%
    973   161        cutoff              5.0000        3.9000   763927   22.00%
    977   162        3.9167   408        5.0000        3.9091   770507   21.82%
    986   170        4.0000   359        5.0000        3.9091   776774   21.82%
Elapsed time = 932.34 sec. (866655.08 ticks, tree = 11.85 MB, solutions = 6)
   1015   179        cutoff              5.0000        3.9091   784445   21.82%
   1027   185        3.9091   484        5.0000        3.9091   790233   21.82%
   1046   203        4.0000   470        5.0000        3.9091   796524   21.82%
   1057   202        cutoff              5.0000        3.9091   806241   21.82%
   1065   196        cutoff              5.0000        3.9167   815210   21.67%
   1073   201        cutoff              5.0000        3.9167   824338   21.67%
   1122   214        3.9176   475        5.0000        3.9167   830021   21.67%
   1151   225        4.0000   260        5.0000        3.9167   836388   21.67%
   1173   222        4.0000   321        5.0000        3.9231   844906   21.54%
   1184   224        4.0000   206        5.0000        3.9254   852578   21.49%
Elapsed time = 973.59 sec. (913397.09 ticks, tree = 13.98 MB, solutions = 6)
   1192   227        4.0000   422        5.0000        3.9333   860205   21.33%
   1209   228        cutoff              5.0000        3.9412   866806   21.18%
   1216   223        4.0000   257        5.0000        4.0000   875186   20.00%
   1255   228        cutoff              5.0000        4.0000   883139   20.00%
Stat(MathOptInterface.OPTIMAL, 5.0, 3.9999999999999316, 0.19999999999601367, 0.025041, 991.2942881584167, 1267, Main.CFLG.EF, "", #undef)

GUB cover cuts applied:  93
Clique cuts applied:  173
Cover cuts applied:  157
Implied bound cuts applied:  75
Flow cuts applied:  253
Mixed integer rounding cuts applied:  509
Zero-half cuts applied:  1
Lift and project cuts applied:  1
Gomory fractional cuts applied:  11

Root node processing (before b&c):
  Real time             =   63.45 sec. (50615.07 ticks)
Sequential b&c:
  Real time             =  926.65 sec. (882784.80 ticks)
                          ------------
Total (root+branch&cut) =  990.10 sec. (933399.88 ticks)
